p edge 50 131
e 0 3
e 0 10
e 0 17
e 0 29
e 0 31
e 1 7
e 1 17
e 1 44
e 2 8
e 2 16
e 2 20
e 3 8
e 3 13
e 3 22
e 3 26
e 3 28
e 3 40
e 3 48
e 4 14
e 5 18
e 5 22
e 5 31
e 5 37
e 6 20
e 7 12
e 7 14
e 7 16
e 7 17
e 7 31
e 8 28
e 8 30
e 8 32
e 8 40
e 9 16
e 9 17
e 9 28
e 9 31
e 9 36
e 10 11
e 10 17
e 10 22
e 10 23
e 10 32
e 10 41
e 10 46
e 11 12
e 11 21
e 11 37
e 11 39
e 11 44
e 12 16
e 12 23
e 12 24
e 12 28
e 12 32
e 12 40
e 12 47
e 13 15
e 13 27
e 13 30
e 13 34
e 13 36
e 13 46
e 14 37
e 15 16
e 15 49
e 16 19
e 16 29
e 16 36
e 18 19
e 18 21
e 18 24
e 18 35
e 18 44
e 19 21
e 19 42
e 21 23
e 21 25
e 21 36
e 22 39
e 22 44
e 23 30
e 23 33
e 23 38
e 23 40
e 24 32
e 24 33
e 24 43
e 24 44
e 24 46
e 25 26
e 25 33
e 25 49
e 26 30
e 26 31
e 26 32
e 26 33
e 26 35
e 26 36
e 26 42
e 26 44
e 26 45
e 27 28
e 27 39
e 27 40
e 27 43
e 28 42
e 28 43
e 28 44
e 28 46
e 29 32
e 29 45
e 30 35
e 31 39
e 31 41
e 31 44
e 31 46
e 31 48
e 32 38
e 32 40
e 33 42
e 34 40
e 35 41
e 37 44
e 37 49
e 38 46
e 38 47
e 38 48
e 43 45
e 43 48
e 45 46
